Problem:    Pro03
Rows:       7
Columns:    4
Non-zeros:  21
Status:     OPTIMAL
Objective:  z = -29 (MINimum)

   No.   Row name   St   Activity     Lower bound   Upper bound    Marginal
------ ------------ -- ------------- ------------- ------------- -------------
     1 z            B            -29                             
     2 r[1]         NS            -7            -7             =             3 
     3 r[4]         NS             2             2             =            -4 
     4 s[2]         B            148            14               
     5 s[5]         NL             0            -0                           6 
     6 s[6]         NL             0            -0                          10 
     7 p[3]         B            -13                          -3 

   No. Column name  St   Activity     Lower bound   Upper bound    Marginal
------ ------------ -- ------------- ------------- ------------- -------------
     1 x[1]         B              0                             
     2 x[2]         B              9                             
     3 x[3]         B              0                             
     4 x[4]         B             25                             

Karush-Kuhn-Tucker optimality conditions:

KKT.PE: max.abs.err = 0.00e+00 on row 0
        max.rel.err = 0.00e+00 on row 0
        High quality

KKT.PB: max.abs.err = 0.00e+00 on row 0
        max.rel.err = 0.00e+00 on row 0
        High quality

KKT.DE: max.abs.err = 0.00e+00 on column 0
        max.rel.err = 0.00e+00 on column 0
        High quality

KKT.DB: max.abs.err = 0.00e+00 on row 0
        max.rel.err = 0.00e+00 on row 0
        High quality

End of output
